
[NpcPos]	Flags	Index	PosX	PosY	Type	IsRangeCheck
0	0	1	222	43	3	1
1	0	2	211	19	2	1
2	0	3	214	56	5	1
3	0	4	201	19	1	1
4	0	5	196	33	1	1
5	0	6	201	54	4	1
6	0	7	169	42	1	1
7	0	8	164	76	7	0
8	0	9	147	45	7	0
9	0	10	185	23	7	0
10	0	11	181	11	6	1
11	1	15	221	13	6	1
12	1	16	174	209	6	1
13	1	17	66	204	6	1
14	1	18	52	25	6	1
15	1	19	77	222	6	1
16	1	20	185	181	6	1
17	1	21	217	173	6	1
18	1	22	196	98	6	1
19	0	23	21	248	6	1
20	0	24	228	41	6	0
21	0	25	75	54	7	0
22	0	26	42	140	7	0
23	0	27	89	244	7	0
24	0	28	193	223	7	0
25	0	29	204	241	7	0
26	0	30	192	156	7	0
27	0	31	223	42	6	1
28	0	32	186	161	7	0
29	0	33	174	174	7	0
30	0	34	158	176	7	0
31	0	35	227	77	7	0
32	0	36	155	57	7	0
33	0	37	131	100	7	0
34	0	38	237	99	7	0
35	0	39	219	122	7	0
36	0	40	222	233	7	0
37	0	41	68	173	7	0
38	0	50	0	0	1	0
39	0	51	0	0	1	0
40	0	71	210	11	6	0
41	0	72	210	11	6	0
42	0	73	210	11	6	0
43	0	74	210	11	6	0
44	0	75	210	11	6	0
45	0	76	210	11	6	0
46	0	77	210	11	6	0
47	1	78	193	49	1	0
48	1	79	225	43	6	1
49	0	182	0	0	16	0

[WarpLst]	NpcsIdx	NSetIdx	TargetIdx	LV	Fee	Type
0	11	0	9	50	0	0
1	15	0	46	1	0	0
2	16	0	152	1	0	2
3	16	1	52	0	0	1
4	16	2	84	0	0	1
5	16	3	121	0	0	1
6	16	4	179	1	0	2
7	16	5	4190	0	0	1
8	16	6	4191	0	0	1
9	17	0	4132	0	0	1
10	18	0	240	125	0	0
11	18	1	170	1	0	2
12	18	3	4370	1	0	2
13	18	5	181	1	0	2
14	19	0	75	0	0	1
15	19	1	135	0	0	1
16	19	2	4137	0	0	1
17	19	3	4296	100	0	1
18	20	0	42	0	0	1
19	20	1	83	0	0	1
20	21	0	85	0	0	1
21	21	1	4128	0	0	1
22	22	0	59	0	0	1
23	22	1	144	0	0	1
24	22	2	201	0	0	1
25	22	3	4142	0	0	1
26	23	0	127	0	0	1
27	23	1	134	0	0	1
28	23	2	138	0	0	1
29	23	3	142	0	0	1
30	23	4	145	0	0	1
31	23	5	4145	0	0	1
32	23	6	4248	155	0	2
33	23	7	4249	155	0	2
34	23	8	4250	155	0	2
35	23	9	4282	160	0	2
36	24	0	206	110	0	0
37	31	0	4170	0	0	1
38	31	1	4171	0	0	1
39	31	2	4285	100	0	1
40	31	3	4297	100	0	1
41	31	4	4314	100	0	1
42	31	5	4316	100	0	1
43	71	0	4235	0	0	1
44	72	0	4236	0	0	1
45	73	0	4237	0	0	1
46	74	0	4238	0	0	1
47	75	0	4239	0	0	1
48	76	0	4240	0	0	1
49	77	0	4241	0	0	1

[SkillLst]	NSetIdx	NpcsIdx	SkillIdx	SkillLv	SkillBook
0	0	2	1	1	1847
1	1	2	2	1	1848
2	2	2	209	1	1967
3	3	2	3	1	1849
4	4	2	4	1	1850
5	5	2	5	1	1851
6	6	2	76	1	33554748
7	7	2	77	1	33554749
8	8	2	10	1	1856
9	9	2	11	1	1857
10	10	2	16	1	1862
11	11	2	17	1	1863
12	12	2	203	1	1961
13	13	2	208	1	1966
14	14	2	12	1	1858
15	15	2	13	1	1859
16	16	2	18	1	1864
17	17	2	19	1	1865
18	18	2	78	1	33554750
19	19	2	79	1	33554751
20	20	2	80	1	33554752
21	21	2	299	1	33555119
22	22	2	22	1	1868
23	23	2	202	1	1960
24	24	2	23	1	1869
25	25	2	24	1	1870
26	26	2	25	1	1871
27	27	2	6	1	1852
28	28	2	7	1	1853
29	29	2	8	1	1854
30	30	2	9	1	1855
31	31	2	81	1	33554753
32	32	2	82	1	33554754
33	33	2	30	1	1876
34	34	2	31	1	1877
35	35	2	32	1	1878
36	36	2	33	1	1879
37	37	2	204	1	1962
38	38	2	14	1	1860
39	39	2	15	1	1861
40	40	2	20	1	1866
41	41	2	21	1	1867
42	42	2	26	1	1872
43	43	2	27	1	1873
44	44	2	28	1	1874
45	45	2	29	1	1875
46	46	2	68	1	1901
47	47	2	83	1	33554755
48	48	2	84	1	33554756
49	49	2	85	1	33554757
50	50	2	185	1	33554889
51	51	2	38	1	1884
52	52	2	211	1	1969
53	53	2	39	1	1885
54	54	2	40	1	1886
55	55	2	41	1	1887
56	56	2	42	1	1888
57	57	2	216	1	1974
58	58	2	71	1	1903
59	59	2	86	1	33554758
60	60	2	87	1	33554759
61	61	2	88	1	33554760
62	62	2	43	1	1889
63	63	2	44	1	1890
64	64	2	45	1	1891
65	65	2	46	1	1892
66	66	2	70	1	1902
67	67	2	205	1	1963
68	68	2	469	1	2137
69	69	2	91	1	33554763
70	70	2	184	1	33554888
71	71	2	51	1	1893
72	72	2	52	1	1894
73	73	2	53	1	1895
74	74	2	54	1	1896
75	75	2	206	1	1964
76	76	2	212	1	1970
77	77	2	468	1	2136
78	78	2	90	1	33554762
79	79	2	89	1	33554761
80	80	2	183	1	33554887
81	81	2	34	1	1880
82	82	2	35	1	1881
83	83	2	36	1	1882
84	84	2	37	1	1883
85	85	2	210	1	1968
86	86	2	92	1	33554764
87	87	2	93	1	33554765
88	88	2	182	1	33554886
89	89	2	55	1	1897
90	90	2	56	1	1898
91	91	2	57	1	1899
92	92	2	58	1	1900
93	93	2	213	1	1971
94	94	2	214	1	1972
95	95	2	217	1	1975
96	97	2	219	1	1977
97	98	2	94	1	33554766
98	99	2	95	1	33554767
99	100	2	178	1	33554882
100	101	2	63	1	2311
101	102	2	64	1	2312
102	103	2	65	1	2313
103	104	2	66	1	2314
104	105	2	207	1	1965
105	106	2	215	1	1973
106	107	2	220	1	1978
107	108	2	221	1	1979
108	109	2	222	1	33554614
109	110	2	72	1	33554618
110	111	2	73	1	33554619
111	112	2	74	1	33554620
112	113	2	75	1	33554621
113	114	2	96	1	33554768
114	115	2	97	1	33554769
115	116	2	98	1	33554770
116	117	2	180	1	33554884
117	118	2	181	1	33554885
118	119	2	472	1	2350
119	120	2	473	1	2351
120	121	2	100	1	1904
121	122	2	128	1	1932
122	123	2	129	1	1933
123	124	2	148	1	1946
124	125	2	157	1	1955
125	126	2	230	1	1988
126	127	2	424	1	2107
127	128	2	101	1	1905
128	129	2	102	1	1906
129	130	2	103	1	1907
130	131	2	425	1	2108
131	132	2	426	1	2109
132	133	2	427	1	2110
133	134	2	104	1	1908
134	135	2	105	1	1909
135	136	2	106	1	1910
136	137	2	428	1	2111
137	138	2	429	1	2112
138	139	2	430	1	2113
139	140	2	107	1	1911
140	141	2	130	1	1934
141	142	2	131	1	1935
142	143	2	149	1	1947
143	145	2	248	1	2006
144	146	2	256	1	2014
145	147	2	431	1	2114
146	148	2	108	1	1912
147	149	2	109	1	1913
148	150	2	110	1	1914
149	151	2	432	1	2115
150	152	2	433	1	2116
151	153	2	434	1	2117
152	154	2	253	1	2011
153	155	2	111	1	1915
154	156	2	112	1	1916
155	157	2	113	1	1917
156	158	2	435	1	2118
157	159	2	436	1	2119
158	160	2	437	1	2120
159	161	2	114	1	1918
160	162	2	132	1	1936
161	163	2	133	1	1937
162	164	2	150	1	1948
163	165	2	158	1	1956
164	166	2	231	1	1989
165	167	2	287	1	4089
166	168	2	259	1	2017
167	169	2	438	1	2121
168	170	2	257	1	2015
169	171	2	115	1	1919
170	172	2	116	1	1920
171	173	2	117	1	1921
172	174	2	439	1	2122
173	175	2	440	1	2123
174	176	2	441	1	2124
175	178	2	240	1	1998
176	179	2	118	1	1922
177	180	2	119	1	1923
178	181	2	120	1	1924
179	182	2	442	1	2125
180	183	2	443	1	2126
181	184	2	444	1	2127
182	185	2	255	1	2013
183	186	2	121	1	1925
184	187	2	134	1	1938
185	188	2	135	1	1939
186	189	2	151	1	1949
187	191	2	241	1	1999
188	192	2	249	1	2007
189	193	2	445	1	2128
190	194	2	122	1	1926
191	195	2	123	1	1927
192	196	2	124	1	1928
193	197	2	258	1	2016
194	198	2	446	1	2129
195	199	2	447	1	2130
196	200	2	448	1	2131
197	201	2	125	1	1929
198	202	2	126	1	1930
199	203	2	127	1	1931
200	204	2	254	1	2012
201	205	2	449	1	2132
202	206	2	450	1	2133
203	207	2	451	1	2134
204	208	2	188	1	33555120
205	209	2	136	1	1940
206	210	2	137	1	1941
207	211	2	152	1	1950
208	212	2	159	1	1957
209	213	2	233	1	1991
210	214	2	250	1	2008
211	215	2	242	1	2000
212	216	2	244	1	2002
213	217	2	179	1	33554883
214	218	2	138	1	1942
215	219	2	153	1	1951
216	220	2	223	1	1981
217	221	2	234	1	1992
218	222	2	236	1	1994
219	223	2	245	1	2003
220	224	2	261	1	2019
221	225	2	140	1	1944
222	226	2	154	1	1952
223	227	2	229	1	1987
224	228	2	272	1	2025
225	229	2	262	1	2020
226	230	2	139	1	1943
227	231	2	155	1	1953
228	232	2	235	1	1993
229	233	2	251	1	2009
230	234	2	273	1	2026
231	235	2	247	1	2005
232	236	2	141	1	1945
233	237	2	156	1	1954
234	238	2	224	1	1982
235	239	2	228	1	1986
236	240	2	288	1	4090
237	241	2	289	1	4091
238	242	2	290	1	4092
239	243	2	268	1	4093
240	244	2	186	1	33554897
241	245	2	167	1	2315
242	246	2	168	1	2316
243	247	2	225	1	1983
244	248	2	226	1	1984
245	249	2	227	1	1985
246	250	2	269	1	2022
247	251	2	270	1	2023
248	252	2	271	1	2024
249	253	2	274	1	2027
250	254	2	291	1	33554615
251	255	2	292	1	33554616
252	256	2	169	1	33554622
253	257	2	170	1	33554623
254	259	2	471	1	2349
255	260	2	300	1	2028
256	261	2	301	1	2038
257	264	2	305	1	2072
258	265	2	306	1	2081
259	268	2	302	1	2048
260	269	2	303	1	2056
261	270	2	304	1	2064
262	308	2	310	1	2090
263	309	2	311	1	2093
264	310	2	312	1	2096
265	311	2	313	1	2099
266	312	2	314	1	2102
267	327	2	99	1	33555724
268	328	2	189	1	33555725
269	329	2	190	1	33555726
270	330	2	191	1	33555727
271	331	2	192	1	33555728
272	332	2	193	1	33555729
273	333	2	194	1	33555730
274	334	2	195	1	33555731
275	335	2	196	1	33555758
276	336	2	525	1	33555878
277	337	2	526	1	33555879
278	338	2	527	1	33555880
279	339	2	528	1	33555881
280	340	2	529	1	33555882
281	341	2	530	1	33555883
282	342	2	531	1	33555884
283	343	2	532	1	33555885
284	344	2	533	1	33555886
285	345	2	534	1	33555887
286	346	2	535	1	33555888
287	347	2	536	1	33555889
288	348	2	537	1	33555890
289	349	2	538	1	33555891
290	350	2	539	1	33555892
291	351	2	540	1	33555893
292	352	2	541	1	33555894
293	353	2	542	1	33555895
294	354	2	543	1	33555896
295	355	2	544	1	33555897
296	356	2	545	1	33555898
297	357	2	546	1	33555899
298	358	2	547	1	33555900
299	359	2	548	1	33555901
300	360	2	549	1	33555902
301	361	2	550	1	33555903
302	362	2	551	1	33555904
303	363	2	552	1	33555905
304	364	2	553	1	33555906
305	365	2	554	1	33555907
306	366	2	555	1	33555908
307	367	2	556	1	33555909
308	368	2	557	1	33555910
309	369	2	558	1	33555911
310	370	2	559	1	33555912
311	371	2	560	1	33555913
312	372	2	561	1	33555914
313	373	2	562	1	33555915
314	374	2	563	1	33555916
315	375	2	564	1	33555917
316	376	2	565	1	33555918
317	377	2	566	1	33555919
318	378	2	567	1	33555920
319	379	2	568	1	33555921
320	380	2	569	1	33555922
321	381	2	570	1	33555923
322	382	2	571	1	33555924
323	383	2	572	1	33555925
324	384	2	573	1	33555931
325	385	2	574	1	33555932
326	386	2	575	1	33555933
327	387	2	576	1	33555934
328	388	2	577	1	33555935
329	389	2	578	1	33555936
330	390	2	579	1	33555937
331	391	2	580	1	33555938
332	392	2	591	1	33556454
333	393	2	605	1	33557028
334	394	2	606	1	33557029
335	395	2	607	1	33557030
336	396	2	608	1	33557031
337	397	2	609	1	33557032
338	398	2	610	1	33557033
339	399	2	611	1	33557034
340	400	2	612	1	33557035
341	401	2	613	1	33557036
342	402	2	614	1	33557037
343	403	2	615	1	33557038
344	404	2	616	1	33557039
345	405	2	617	1	33557040
346	406	2	618	1	33557041
347	407	2	619	1	33557042
348	408	2	620	1	33557043
349	409	2	621	1	33557044
350	410	2	622	1	33557045
351	411	2	623	1	33557046
352	412	2	624	1	33557047
353	413	2	625	1	33557048
354	414	2	626	1	33557049
355	415	2	627	1	33557050
356	416	2	628	1	33557051
357	417	2	629	1	33557052
358	418	2	630	1	33557053
359	419	2	631	1	33557054
360	420	2	632	1	33557055
361	421	2	633	1	33557190
362	422	2	634	1	33557191
363	423	2	635	1	33557192
364	424	2	636	1	33557193
365	425	2	637	1	33557194
366	426	2	638	1	33557195
367	427	2	639	1	33557196
368	428	2	640	1	33557197
369	429	2	641	1	33557198
370	430	2	642	1	33557199
371	431	2	643	1	33557200
372	432	2	644	1	33557201
373	433	2	645	1	33557202
374	434	2	646	1	33557203
375	435	2	647	1	33557204
376	436	2	648	1	33557205
377	437	2	649	1	33557206
378	438	2	650	1	33557207
379	439	2	651	1	33557208
380	440	2	652	1	33557209
381	441	2	653	1	33557210
382	442	2	654	1	33557211
383	443	2	655	1	33557212
384	444	2	656	1	33557213
385	445	2	657	1	33557214
386	446	2	658	1	33557215
387	447	2	659	1	33557216
388	448	2	660	1	33557217
389	449	2	661	1	33557218
390	450	2	662	1	33557219
391	451	2	687	1	33557256
392	452	2	688	1	33557254
393	453	2	689	1	33557255
394	454	2	675	1	33557220
395	455	2	676	1	33557221
396	456	2	677	1	33557222
397	457	2	678	1	33557223
398	458	2	679	1	33557224
399	459	2	680	1	33557225
400	460	2	681	1	33557226
401	461	2	682	1	33557227
402	462	2	683	1	33557228
403	463	2	684	1	33557229
404	464	2	685	1	33557266
405	465	2	686	1	33557267
406	466	2	690	1	33557268
407	467	2	691	1	33557269
408	468	2	692	1	33557270
